 $contrl units=angs local=boys runtyp=makefp coord=cart icut=11 $end
 $system timlim=99999  mwords=200 $end
 $scf dirscf=.t. soscf=.f. diis=.t. conv=1.0d-06  $end
 $basis gbasis=n31 ngauss=6 ndfunc=1 diffsp=.t. $end
 $damp ifttyp(1)=2,0 iftfix(1)=1,1 thrsh=500.0 $end
 $makefp chtr=.f. disp7=.f. $end
 
 $data 
comment line
C1
N  7  1.08099635  1.08099635  1.08099635
H  1  1.89264145  1.37035655  0.59462495
H  1  1.37035655  0.59462495  1.89264145
H  1  0.59462495  1.89264145  1.37035655
 $end
 
